encoding rcpsp/j60.sm/j6039_1.sm nv: 534625 nc: 1101803 enctime: 9.65
encoding rcpsp/j60.sm/j6039_1.sm nv: 141470 nc: 289681 enctime: 1.70
c File: j6039_1.smnaive.wcnf
c optimal
c final solution cost: 80
c CPU time: 1.914919
s OPTIMUM FOUND

c File: j6039_1.sm.wcnf
c optimal
c final solution cost: 80
c CPU time: 0.347556
s OPTIMUM FOUND


encoding rcpsp/j60.sm/j6039_2.sm nv: 616044 nc: 1281849 enctime: 11.40
encoding rcpsp/j60.sm/j6039_2.sm nv: 145860 nc: 301203 enctime: 1.71
c File: j6039_2.smnaive.wcnf
c optimal
c final solution cost: 84
c CPU time: 1.779045
s OPTIMUM FOUND

c File: j6039_2.sm.wcnf
c optimal
c final solution cost: 84
c CPU time: 0.416351
s OPTIMUM FOUND


encoding rcpsp/j60.sm/j6039_3.sm nv: 562744 nc: 1183511 enctime: 10.69
encoding rcpsp/j60.sm/j6039_3.sm nv: 129864 nc: 270711 enctime: 2.01
c File: j6039_3.smnaive.wcnf
c optimal
c final solution cost: 83
c CPU time: 2.139458
s OPTIMUM FOUND

c File: j6039_3.sm.wcnf
c optimal
c final solution cost: 83
c CPU time: 0.230902
s OPTIMUM FOUND


encoding rcpsp/j60.sm/j6039_4.sm nv: 462537 nc: 967375 enctime: 8.56
encoding rcpsp/j60.sm/j6039_4.sm nv: 129177 nc: 268255 enctime: 1.56
c File: j6039_4.smnaive.wcnf
c optimal
c final solution cost: 92
c CPU time: 1.341084
s OPTIMUM FOUND

c File: j6039_4.sm.wcnf
c optimal
c final solution cost: 92
c CPU time: 0.349739
s OPTIMUM FOUND


encoding rcpsp/j60.sm/j6039_5.sm nv: 512924 nc: 1062787 enctime: 9.39
encoding rcpsp/j60.sm/j6039_5.sm nv: 117512 nc: 241585 enctime: 1.37
c File: j6039_5.smnaive.wcnf
c optimal
c final solution cost: 73
c CPU time: 1.604515
s OPTIMUM FOUND

c File: j6039_5.sm.wcnf
c optimal
c final solution cost: 73
c CPU time: 0.210913
s OPTIMUM FOUND


encoding rcpsp/j60.sm/j6039_6.sm nv: 396416 nc: 825544 enctime: 7.14
encoding rcpsp/j60.sm/j6039_6.sm nv: 113448 nc: 234653 enctime: 1.33
c File: j6039_6.smnaive.wcnf
c optimal
c final solution cost: 84
c CPU time: 1.323404
s OPTIMUM FOUND

c File: j6039_6.sm.wcnf
c optimal
c final solution cost: 84
c CPU time: 0.268518
s OPTIMUM FOUND


encoding rcpsp/j60.sm/j6039_7.sm nv: 538868 nc: 1114804 enctime: 10.49
encoding rcpsp/j60.sm/j6039_7.sm nv: 113960 nc: 233668 enctime: 1.41
c File: j6039_7.smnaive.wcnf
c optimal
c final solution cost: 68
c CPU time: 2.117200
s OPTIMUM FOUND

c File: j6039_7.sm.wcnf
c optimal
c final solution cost: 68
c CPU time: 0.233185
s OPTIMUM FOUND


encoding rcpsp/j60.sm/j6039_8.sm nv: 529718 nc: 1088323 enctime: 9.23
encoding rcpsp/j60.sm/j6039_8.sm nv: 131586 nc: 268459 enctime: 1.97
c File: j6039_8.smnaive.wcnf
c optimal
c final solution cost: 77
c CPU time: 1.525801
s OPTIMUM FOUND

c File: j6039_8.sm.wcnf
c optimal
c final solution cost: 77
c CPU time: 0.411316
s OPTIMUM FOUND


encoding rcpsp/j60.sm/j6039_9.sm nv: 527145 nc: 1097412 enctime: 9.61
encoding rcpsp/j60.sm/j6039_9.sm nv: 113515 nc: 234242 enctime: 1.35
c File: j6039_9.smnaive.wcnf
c optimal
c final solution cost: 72
c CPU time: 1.777094
s OPTIMUM FOUND

c File: j6039_9.sm.wcnf
c optimal
c final solution cost: 72
c CPU time: 0.196669
s OPTIMUM FOUND


encoding rcpsp/j60.sm/j603_9.sm nv: 187525 nc: 406800 enctime: 3.73
encoding rcpsp/j60.sm/j603_9.sm nv: 39236 nc: 83237 enctime: 0.70
c File: j603_9.smnaive.wcnf
c optimal
c final solution cost: 67
c CPU time: 1.070815
s OPTIMUM FOUND

c File: j603_9.sm.wcnf
c optimal
c final solution cost: 67
c CPU time: 0.149948
s OPTIMUM FOUND


encoding rcpsp/j60.sm/j6040_10.sm nv: 572862 nc: 1170077 enctime: 9.81
encoding rcpsp/j60.sm/j6040_10.sm nv: 138084 nc: 280250 enctime: 1.58
c File: j6040_10.smnaive.wcnf
c optimal
c final solution cost: 73
c CPU time: 1.640727
s OPTIMUM FOUND

c File: j6040_10.sm.wcnf
c optimal
c final solution cost: 73
c CPU time: 0.241020
s OPTIMUM FOUND


encoding rcpsp/j60.sm/j6040_1.sm nv: 716280 nc: 1487761 enctime: 13.70
encoding rcpsp/j60.sm/j6040_1.sm nv: 165735 nc: 341876 enctime: 2.00
c File: j6040_1.smnaive.wcnf
c optimal
c final solution cost: 86
c CPU time: 2.090497
s OPTIMUM FOUND

c File: j6040_1.sm.wcnf
c optimal
c final solution cost: 86
c CPU time: 0.488333
s OPTIMUM FOUND


encoding rcpsp/j60.sm/j6040_2.sm nv: 656933 nc: 1355913 enctime: 12.09
encoding rcpsp/j60.sm/j6040_2.sm nv: 152602 nc: 312834 enctime: 1.79
c File: j6040_2.smnaive.wcnf
c optimal
c final solution cost: 81
c CPU time: 1.820781
s OPTIMUM FOUND

c File: j6040_2.sm.wcnf
c optimal
c final solution cost: 81
c CPU time: 0.327947
s OPTIMUM FOUND


encoding rcpsp/j60.sm/j6040_3.sm nv: 699618 nc: 1425706 enctime: 11.74
encoding rcpsp/j60.sm/j6040_3.sm nv: 153786 nc: 311362 enctime: 1.82
c File: j6040_3.smnaive.wcnf
c optimal
c final solution cost: 70
c CPU time: 1.813207
s OPTIMUM FOUND

c File: j6040_3.sm.wcnf
c optimal
c final solution cost: 70
c CPU time: 0.356561
s OPTIMUM FOUND


encoding rcpsp/j60.sm/j6040_4.sm nv: 588843 nc: 1217711 enctime: 10.14
encoding rcpsp/j60.sm/j6040_4.sm nv: 152856 nc: 314111 enctime: 2.19
c File: j6040_4.smnaive.wcnf
c optimal
c final solution cost: 87
c CPU time: 1.769589
s OPTIMUM FOUND

c File: j6040_4.sm.wcnf
c optimal
c final solution cost: 87
c CPU time: 0.274101
s OPTIMUM FOUND


encoding rcpsp/j60.sm/j6040_5.sm nv: 650256 nc: 1352412 enctime: 11.59
encoding rcpsp/j60.sm/j6040_5.sm nv: 146832 nc: 302940 enctime: 1.76
c File: j6040_5.smnaive.wcnf
c optimal
c final solution cost: 83
c CPU time: 1.970216
s OPTIMUM FOUND

c File: j6040_5.sm.wcnf
c optimal
c final solution cost: 83
c CPU time: 0.303401
s OPTIMUM FOUND


encoding rcpsp/j60.sm/j6040_6.sm nv: 632948 nc: 1287317 enctime: 11.21
encoding rcpsp/j60.sm/j6040_6.sm nv: 140210 nc: 283145 enctime: 1.74
c File: j6040_6.smnaive.wcnf
c optimal
c final solution cost: 69
c CPU time: 2.117564
s OPTIMUM FOUND

c File: j6040_6.sm.wcnf
c optimal
c final solution cost: 69
c CPU time: 0.250897
s OPTIMUM FOUND


encoding rcpsp/j60.sm/j6040_7.sm nv: 683905 nc: 1390439 enctime: 11.54
encoding rcpsp/j60.sm/j6040_7.sm nv: 150765 nc: 304639 enctime: 1.75
c File: j6040_7.smnaive.wcnf
c optimal
c final solution cost: 68
c CPU time: 1.736682
s OPTIMUM FOUND

c File: j6040_7.sm.wcnf
c optimal
c final solution cost: 68
c CPU time: 0.310948
s OPTIMUM FOUND


encoding rcpsp/j60.sm/j6040_8.sm nv: 656832 nc: 1353485 enctime: 11.78
encoding rcpsp/j60.sm/j6040_8.sm nv: 151146 nc: 309322 enctime: 1.78
c File: j6040_8.smnaive.wcnf
c optimal
c final solution cost: 80
c CPU time: 1.976932
s OPTIMUM FOUND

c File: j6040_8.sm.wcnf
c optimal
c final solution cost: 80
c CPU time: 0.267684
s OPTIMUM FOUND


encoding rcpsp/j60.sm/j6040_9.sm nv: 642096 nc: 1321593 enctime: 10.78
encoding rcpsp/j60.sm/j6040_9.sm nv: 170352 nc: 348621 enctime: 2.02
c File: j6040_9.smnaive.wcnf
c optimal
c final solution cost: 90
c CPU time: 1.979534
s OPTIMUM FOUND

c File: j6040_9.sm.wcnf
c optimal
c final solution cost: 90
c CPU time: 0.409700
s OPTIMUM FOUND


encoding rcpsp/j60.sm/j604_10.sm nv: 181930 nc: 397619 enctime: 3.92
encoding rcpsp/j60.sm/j604_10.sm nv: 44070 nc: 94571 enctime: 0.43
c File: j604_10.smnaive.wcnf
c optimal
c final solution cost: 77
c CPU time: 0.702859
s OPTIMUM FOUND

c File: j604_10.sm.wcnf
c optimal
c final solution cost: 77
c CPU time: 0.085102
s OPTIMUM FOUND


encoding rcpsp/j60.sm/j6041_10.sm nv: 667950 nc: 1398915 enctime: 11.79
encoding rcpsp/j60.sm/j6041_10.sm nv: 225090 nc: 469393 enctime: 3.27
c File: j6041_10.smnaive.wcnf
c timeout
c final solution cost: 116
c CPU time: 61.589931
s UNKNOWN

c File: j6041_10.sm.wcnf
c timeout
c final solution cost: 116
c CPU time: 60.534247
s UNKNOWN


encoding rcpsp/j60.sm/j6041_1.sm nv: 588430 nc: 1242754 enctime: 11.75
encoding rcpsp/j60.sm/j6041_1.sm nv: 216790 nc: 455926 enctime: 2.72
c File: j6041_1.smnaive.wcnf
c timeout
c final solution cost: 131
c CPU time: 61.476897
s UNKNOWN

c File: j6041_1.sm.wcnf
c timeout
c final solution cost: 126
c CPU time: 60.389053
s UNKNOWN


encoding rcpsp/j60.sm/j6041_2.sm nv: 539550 nc: 1127363 enctime: 10.28
encoding rcpsp/j60.sm/j6041_2.sm nv: 215820 nc: 449411 enctime: 2.83
c File: j6041_2.smnaive.wcnf
c timeout
c final solution cost: 115
c CPU time: 61.257105
s UNKNOWN

c File: j6041_2.sm.wcnf
c timeout
c final solution cost: 117
c CPU time: 60.425013
s UNKNOWN


encoding rcpsp/j60.sm/j6041_3.sm nv: 534055 nc: 1103903 enctime: 9.67
encoding rcpsp/j60.sm/j6041_3.sm nv: 208369 nc: 429281 enctime: 3.37
c File: j6041_3.smnaive.wcnf
c timeout
c final solution cost: 105
c CPU time: 61.374935
s UNKNOWN

c File: j6041_3.sm.wcnf
c timeout
c final solution cost: 104
c CPU time: 60.373572
s UNKNOWN


encoding rcpsp/j60.sm/j6041_4.sm nv: 509490 nc: 1070646 enctime: 9.54
encoding rcpsp/j60.sm/j6041_4.sm nv: 221850 nc: 464722 enctime: 3.50
c File: j6041_4.smnaive.wcnf
c timeout
c final solution cost: 134
c CPU time: 61.473745
s UNKNOWN

c File: j6041_4.sm.wcnf
c timeout
c final solution cost: 133
c CPU time: 60.466185
s UNKNOWN


encoding rcpsp/j60.sm/j6041_5.sm nv: 577474 nc: 1211329 enctime: 9.36
encoding rcpsp/j60.sm/j6041_5.sm nv: 205287 nc: 428822 enctime: 2.77
c File: j6041_5.smnaive.wcnf
c timeout
c final solution cost: 122
c CPU time: 61.563307
s UNKNOWN

c File: j6041_5.sm.wcnf
c timeout
c CPU time: 60.401947
s UNKNOWN


j60
1000
0
rcpsp/heur_output_log_0/heurj60.txt
encoding rcpsp/j60.sm/j6041_6.sm nv: 531420 nc: 1117807 enctime: 9.81
encoding rcpsp/j60.sm/j6041_6.sm nv: 239139 nc: 501455 enctime: 2.84
c File: j6041_6.smnaive.wcnf
c timeout
c final solution cost: 141
c CPU time: 61.391097
s UNKNOWN

c File: j6041_6.sm.wcnf
c timeout
c final solution cost: 140
c CPU time: 60.547733
s UNKNOWN


j60
1000
0
rcpsp/heur_output_log_0/heurj60.txt
encoding rcpsp/j60.sm/j6041_7.sm nv: 536492 nc: 1136174 enctime: 9.79
encoding rcpsp/j60.sm/j6041_7.sm nv: 232078 nc: 489774 enctime: 3.23
c File: j6041_7.smnaive.wcnf
c timeout
c final solution cost: 138
c CPU time: 61.386051
s UNKNOWN

c File: j6041_7.sm.wcnf
c timeout
c final solution cost: 140
c CPU time: 60.430826
s UNKNOWN


j60
1000
0
rcpsp/heur_output_log_0/heurj60.txt
encoding rcpsp/j60.sm/j6041_8.sm nv: 549974 nc: 1161988 enctime: 9.80
encoding rcpsp/j60.sm/j6041_8.sm nv: 236816 nc: 498688 enctime: 3.52
c File: j6041_8.smnaive.wcnf
c timeout
c final solution cost: 140
c CPU time: 61.314267
s UNKNOWN

c File: j6041_8.sm.wcnf
c timeout
c final solution cost: 139
c CPU time: 60.526942
s UNKNOWN


j60
1000
0
rcpsp/heur_output_log_0/heurj60.txt
encoding rcpsp/j60.sm/j6041_9.sm nv: 612504 nc: 1296278 enctime: 11.87
encoding rcpsp/j60.sm/j6041_9.sm nv: 262269 nc: 553238 enctime: 4.22
c File: j6041_9.smnaive.wcnf
c timeout
c final solution cost: 140
c CPU time: 61.897441
s UNKNOWN

c File: j6041_9.sm.wcnf
c timeout
c final solution cost: 135
c CPU time: 60.611598
s UNKNOWN


j60
1000
0
rcpsp/heur_output_log_0/heurj60.txt
encoding rcpsp/j60.sm/j604_1.sm nv: 216395 nc: 496432 enctime: 5.08
encoding rcpsp/j60.sm/j604_1.sm nv: 48025 nc: 107840 enctime: 0.93
c File: j604_1.smnaive.wcnf
c optimal
c final solution cost: 84
c CPU time: 0.912308
s OPTIMUM FOUND

c File: j604_1.sm.wcnf
c optimal
c final solution cost: 84
c CPU time: 0.160576
s OPTIMUM FOUND


j60
1000
0
rcpsp/heur_output_log_0/heurj60.txt
encoding rcpsp/j60.sm/j6042_10.sm nv: 688597 nc: 1404557 enctime: 11.49
encoding rcpsp/j60.sm/j6042_10.sm nv: 204967 nc: 416507 enctime: 2.33
c File: j6042_10.smnaive.wcnf
c optimal
c final solution cost: 87
c CPU time: 2.322284
s OPTIMUM FOUND

c File: j6042_10.sm.wcnf
c optimal
c final solution cost: 87
c CPU time: 0.855975
s OPTIMUM FOUND


j60
1000
0
rcpsp/heur_output_log_0/heurj60.txt
encoding rcpsp/j60.sm/j6042_1.sm nv: 926464 nc: 1885639 enctime: 15.42
encoding rcpsp/j60.sm/j6042_1.sm nv: 239360 nc: 485323 enctime: 3.51
c File: j6042_1.smnaive.wcnf
c optimal
c final solution cost: 83
c CPU time: 6.115776
s OPTIMUM FOUND

c File: j6042_1.sm.wcnf
c optimal
c final solution cost: 83
c CPU time: 0.637466
s OPTIMUM FOUND


j60
1000
0
rcpsp/heur_output_log_0/heurj60.txt
encoding rcpsp/j60.sm/j6042_2.sm nv: 896432 nc: 1819282 enctime: 14.82
encoding rcpsp/j60.sm/j6042_2.sm nv: 203344 nc: 410842 enctime: 2.84
c File: j6042_2.smnaive.wcnf
c optimal
c final solution cost: 68
c CPU time: 2.329680
s OPTIMUM FOUND

c File: j6042_2.sm.wcnf
c optimal
c final solution cost: 68
c CPU time: 0.502374
s OPTIMUM FOUND


j60
1000
0
rcpsp/heur_output_log_0/heurj60.txt
encoding rcpsp/j60.sm/j6042_3.sm nv: 794206 nc: 1627631 enctime: 13.35
encoding rcpsp/j60.sm/j6042_3.sm nv: 212432 nc: 433476 enctime: 3.11
c File: j6042_3.smnaive.wcnf
c timeout
c final solution cost: 81
c CPU time: 61.693009
s UNKNOWN

c File: j6042_3.sm.wcnf
c timeout
c final solution cost: 78
c CPU time: 60.364708
s UNKNOWN


j60
1000
0
rcpsp/heur_output_log_0/heurj60.txt
encoding rcpsp/j60.sm/j6042_4.sm nv: 799414 nc: 1653209 enctime: 13.82
encoding rcpsp/j60.sm/j6042_4.sm nv: 254562 nc: 524465 enctime: 3.61
c File: j6042_4.smnaive.wcnf
c optimal
c final solution cost: 103
c CPU time: 21.685933
s OPTIMUM FOUND

c File: j6042_4.sm.wcnf
c optimal
c final solution cost: 103
c CPU time: 3.672121
s OPTIMUM FOUND


j60
1000
0
rcpsp/heur_output_log_0/heurj60.txt
encoding rcpsp/j60.sm/j6042_5.sm nv: 937280 nc: 1902399 enctime: 13.66
encoding rcpsp/j60.sm/j6042_5.sm nv: 222604 nc: 449867 enctime: 2.65
c File: j6042_5.smnaive.wcnf
c optimal
c final solution cost: 73
c CPU time: 2.679382
s OPTIMUM FOUND

c File: j6042_5.sm.wcnf
c optimal
c final solution cost: 73
c CPU time: 0.931293
s OPTIMUM FOUND


j60
1000
0
rcpsp/heur_output_log_0/heurj60.txt
encoding rcpsp/j60.sm/j6042_6.sm nv: 745986 nc: 1521051 enctime: 12.15
encoding rcpsp/j60.sm/j6042_6.sm nv: 211732 nc: 429975 enctime: 2.41
c File: j6042_6.smnaive.wcnf
c optimal
c final solution cost: 82
c CPU time: 2.962530
s OPTIMUM FOUND

c File: j6042_6.sm.wcnf
c optimal
c final solution cost: 82
c CPU time: 1.083379
s OPTIMUM FOUND


j60
1000
0
rcpsp/heur_output_log_0/heurj60.txt
encoding rcpsp/j60.sm/j6042_7.sm nv: 748627 nc: 1510195 enctime: 11.36
encoding rcpsp/j60.sm/j6042_7.sm nv: 172546 nc: 346648 enctime: 2.60
c File: j6042_7.smnaive.wcnf
c optimal
c final solution cost: 59
c CPU time: 11.538839
s OPTIMUM FOUND

c File: j6042_7.sm.wcnf
c optimal
c final solution cost: 59
c CPU time: 7.008360
s OPTIMUM FOUND


